nj = 5;
nm = 4;
pidle =  [3 2 3 2];
Ops =  {<1 1 3 9 0 5 5> <1 2 1 12 0 3 4>
     <1 3 2 9 0 1 4>
     <1 4 4 6 1 2 4>
     <2 1 3 16 0 5 3>
     <2 2 2 11 0 3 3>
     <2 3 4 9 1 2 5>
     <3 1 1 21 0 5 3>
     <3 2 2 18 0 1 5>
     <3 3 4 7 1 2 5>
     <4 1 2 20 0 5 4>
     <4 2 3 22 0 2 3>
     <4 3 4 11 1 3 3>
     <5 1 3 14 0 5 5>
     <5 2 1 16 0 3 3>
     <5 3 2 13 0 1 5>
     <5 4 4 9 1 2 3>};
